(set-info :smt-lib-version 2.6)
(set-logic AUFBVFPDTNIRA)
(set-info :source |
Generated by: AdaCore
Generated on: 2020-03-06
Generator: SPARK
Application: Program verification for Ada
Target solver: CVC4
|)
(set-info :license "https://creativecommons.org/licenses/by/4.0/")
(set-info :category "industrial")
(set-info :status unknown)
;;; generated by SMT-LIB2 driver
;;; SMT-LIB2 driver: bit-vectors, common part
;;; SMT-LIB2: integer arithmetic
;;; SMT-LIB2: real arithmetic
(define-fun fp.isFinite32 ((x Float32)) Bool (not (or (fp.isInfinite x) (fp.isNaN x))))
(define-fun fp.isIntegral32 ((x Float32)) Bool (or (fp.isZero x) (and (fp.isNormal x) (= x (fp.roundToIntegral RNE x)))))
(declare-sort string 0)

(declare-datatypes ((tuple0 0))
(((Tuple0))))
(declare-sort us_private 0)

(declare-fun private__bool_eq (us_private us_private) Bool)

(declare-const us_null_ext__ us_private)

(declare-sort us_type_of_heap 0)

(declare-datatypes ((us_type_of_heap__ref 0))
(((us_type_of_heap__refqtmk (us_type_of_heap__content us_type_of_heap)))))
(declare-sort us_image 0)

(declare-datatypes ((int__ref 0))
(((int__refqtmk (int__content Int)))))
(declare-datatypes ((bool__ref 0))
(((bool__refqtmk (bool__content Bool)))))
(declare-datatypes ((us_fixed__ref 0))
(((us_fixed__refqtmk (us_fixed__content Int)))))
(declare-datatypes ((real__ref 0))
(((real__refqtmk (real__content Real)))))
(declare-datatypes ((us_private__ref 0))
(((us_private__refqtmk (us_private__content us_private)))))
(define-fun int__ref___projection ((a int__ref)) Int (int__content a))

(define-fun us_fixed__ref___projection ((a us_fixed__ref)) Int (us_fixed__content
                                                               a))

(define-fun bool__ref___projection ((a bool__ref)) Bool (bool__content a))

(define-fun real__ref___projection ((a real__ref)) Real (real__content a))

(define-fun us_private__ref___projection ((a us_private__ref)) us_private 
  (us_private__content a))

(declare-fun pow2 (Int) Int)

(define-fun is_plus_infinity ((x Float32)) Bool (and (fp.isInfinite x)
                                                (fp.isPositive x)))

(define-fun is_minus_infinity ((x Float32)) Bool (and (fp.isInfinite x)
                                                 (fp.isNegative x)))

(define-fun is_plus_zero ((x Float32)) Bool (and (fp.isZero x)
                                            (fp.isPositive x)))

(define-fun is_minus_zero ((x Float32)) Bool (and (fp.isZero x)
                                             (fp.isNegative x)))

(declare-const max_int Int)

(define-fun in_int_range ((i Int)) Bool (and (<= (- max_int) i)
                                        (<= i max_int)))

(define-fun in_safe_int_range ((i Int)) Bool (and (<= (- 16777216) i)
                                             (<= i 16777216)))

(define-fun same_sign ((x Float32)
  (y Float32)) Bool (or (and (fp.isPositive x) (fp.isPositive y))
                    (and (fp.isNegative x) (fp.isNegative y))))

(define-fun diff_sign ((x Float32)
  (y Float32)) Bool (or (and (fp.isPositive x) (fp.isNegative y))
                    (and (fp.isNegative x) (fp.isPositive y))))

(define-fun product_sign ((z Float32) (x Float32)
  (y Float32)) Bool (and (=> (same_sign x y) (fp.isPositive z))
                    (=> (diff_sign x y) (fp.isNegative z))))

(define-fun sqr ((x Real)) Real (* x x))

(declare-fun sqrt1 (Real) Real)

(define-fun same_sign_real ((x Float32)
  (r Real)) Bool (or (and (fp.isPositive x) (< 0.0 r))
                 (and (fp.isNegative x) (< r 0.0))))

(declare-datatypes ((t__ref 0))
(((t__refqtmk (t__content Float32)))))
(define-fun in_range ((x Int)) Bool (or (= x 0) (= x 1)))

(declare-fun attr__ATTRIBUTE_IMAGE (Bool) us_image)

(declare-fun attr__ATTRIBUTE_VALUE__pre_check (us_image) Bool)

(declare-fun attr__ATTRIBUTE_VALUE (us_image) Bool)

(declare-sort float__ 0)

(declare-fun user_eq (float__ float__) Bool)

(declare-fun attr__ATTRIBUTE_IMAGE1 (Float32) us_image)

(declare-fun attr__ATTRIBUTE_VALUE__pre_check1 (us_image) Bool)

(declare-fun attr__ATTRIBUTE_VALUE1 (us_image) Float32)

(declare-const dummy float__)

(declare-datatypes ((float____ref 0))
(((float____refqtmk (float____content float__)))))
(define-fun float____ref_float____content__projection ((a float____ref)) float__ 
  (float____content a))

(define-fun dynamic_invariant ((temp___expr_60 Float32)
  (temp___is_init_56 Bool) (temp___skip_constant_57 Bool)
  (temp___do_toplevel_58 Bool)
  (temp___do_typ_inv_59 Bool)) Bool (=>
                                    (or (= temp___is_init_56 true)
                                    (fp.leq (fp.neg (fp #b0 #b11111110 #b11111111111111111111111)) (fp #b0 #b11111110 #b11111111111111111111111)))
                                    (fp.isFinite32 temp___expr_60)))

(declare-const nb_of_fp Int)

(declare-const attr__ATTRIBUTE_ADDRESS Int)

(declare-const nb_of_pp Int)

(declare-const attr__ATTRIBUTE_ADDRESS1 Int)

(declare-const delta_time Float32)

(declare-const attr__ATTRIBUTE_ADDRESS2 Int)

(declare-const attr__ATTRIBUTE_ADDRESS3 Int)

(declare-const attr__ATTRIBUTE_ADDRESS4 Int)

(declare-const attr__ATTRIBUTE_ADDRESS5 Int)

(declare-const attr__ATTRIBUTE_ADDRESS6 Int)

(declare-sort nb_type 0)

(declare-fun nb_typeqtint (nb_type) Int)

;; nb_type'axiom
  (assert
  (forall ((i nb_type))
  (and (<= 0 (nb_typeqtint i)) (<= (nb_typeqtint i) 100))))

(define-fun in_range1 ((x Int)) Bool (and (<= 0 x) (<= x 100)))

(declare-fun attr__ATTRIBUTE_IMAGE2 (Int) us_image)

(declare-fun attr__ATTRIBUTE_VALUE__pre_check2 (us_image) Bool)

(declare-fun attr__ATTRIBUTE_VALUE2 (us_image) Int)

(declare-fun user_eq1 (nb_type nb_type) Bool)

(declare-const dummy1 nb_type)

(declare-datatypes ((nb_type__ref 0))
(((nb_type__refqtmk (nb_type__content nb_type)))))
(define-fun nb_type__ref_nb_type__content__projection ((a nb_type__ref)) nb_type 
  (nb_type__content a))

(define-fun dynamic_invariant1 ((temp___expr_159 Int)
  (temp___is_init_155 Bool) (temp___skip_constant_156 Bool)
  (temp___do_toplevel_157 Bool)
  (temp___do_typ_inv_158 Bool)) Bool (=>
                                     (or (= temp___is_init_155 true)
                                     (<= 0 100)) (in_range1 temp___expr_159)))

(declare-sort d_time_type 0)

(define-fun in_range2 ((x Float32)) Bool (and (fp.isFinite32 x)
                                         (and
                                         (fp.leq (fp #b0 #b00000000 #b00000000000000000000000) x)
                                         (fp.leq x (fp #b0 #b10001000 #b11110100000000000000000)))))

(declare-fun user_eq2 (d_time_type d_time_type) Bool)

(declare-fun attr__ATTRIBUTE_IMAGE3 (Float32) us_image)

(declare-fun attr__ATTRIBUTE_VALUE__pre_check3 (us_image) Bool)

(declare-fun attr__ATTRIBUTE_VALUE3 (us_image) Float32)

(declare-const dummy2 d_time_type)

(declare-datatypes ((d_time_type__ref 0))
(((d_time_type__refqtmk (d_time_type__content d_time_type)))))
(define-fun d_time_type__ref_d_time_type__content__projection ((a d_time_type__ref)) d_time_type 
  (d_time_type__content a))

(define-fun dynamic_invariant2 ((temp___expr_166 Float32)
  (temp___is_init_162 Bool) (temp___skip_constant_163 Bool)
  (temp___do_toplevel_164 Bool)
  (temp___do_typ_inv_165 Bool)) Bool (=>
                                     (or (= temp___is_init_162 true)
                                     (fp.leq (fp #b0 #b00000000 #b00000000000000000000000) (fp #b0 #b10001000 #b11110100000000000000000)))
                                     (in_range2 temp___expr_166)))

(declare-sort delta_time_type 0)

(define-fun in_range3 ((x Float32)) Bool (and (fp.isFinite32 x)
                                         (and
                                         (fp.leq (fp #b0 #b00000000 #b00000000000000000000000) x)
                                         (fp.leq x (fp #b0 #b01111111 #b00000000000000000000000)))))

(declare-fun user_eq3 (delta_time_type delta_time_type) Bool)

(declare-fun attr__ATTRIBUTE_IMAGE4 (Float32) us_image)

(declare-fun attr__ATTRIBUTE_VALUE__pre_check4 (us_image) Bool)

(declare-fun attr__ATTRIBUTE_VALUE4 (us_image) Float32)

(declare-const dummy3 delta_time_type)

(declare-datatypes ((delta_time_type__ref 0))
(((delta_time_type__refqtmk (delta_time_type__content delta_time_type)))))
(define-fun delta_time_type__ref_delta_time_type__content__projection ((a delta_time_type__ref)) delta_time_type 
  (delta_time_type__content a))

(define-fun dynamic_invariant3 ((temp___expr_173 Float32)
  (temp___is_init_169 Bool) (temp___skip_constant_170 Bool)
  (temp___do_toplevel_171 Bool)
  (temp___do_typ_inv_172 Bool)) Bool (=>
                                     (or (= temp___is_init_169 true)
                                     (fp.leq (fp #b0 #b00000000 #b00000000000000000000000) (fp #b0 #b01111111 #b00000000000000000000000)))
                                     (in_range3 temp___expr_173)))

(assert
;; defqtvc
 ;; File "original_sample.ads", line 29, characters 0-0
  (not
  (forall ((time Float32))
  (=> (dynamic_invariant1 nb_of_fp true false true true)
  (=> (dynamic_invariant1 nb_of_pp true false true true)
  (=> (dynamic_invariant3 delta_time true false true true)
  (=> (dynamic_invariant time true false true true)
  (fp.isFinite32 (fp.sub RNE (fp #b0 #b11111110 #b11111111111111111111111) (fp.mul RNE ((_ to_fp 8 24) RNE (to_real (+ 
  nb_of_fp nb_of_pp))) delta_time))))))))))
(check-sat)
(exit)
